p cnf 116 953
c 117 115 120 118 116 123 122 122 

0 1 0
-2 3 0
-4 5 0
-6 7 0
-8 9 0
-10 -3 0
-11 -5 0
-12 -7 0
-13 -9 0
-10 14 0
-11 15 0
-12 16 0
-13 1 0
10 -14 3 0
11 -15 5 0
12 -16 7 0
13 -1 9 0
2 14 -3 0
4 15 -5 0
6 16 -7 0
8 1 -9 0
11 -17 0
12 -18 0
13 -19 0
10 20 -21 0
12 22 -23 0
13 24 -25 0
10 -26 0
11 27 -28 0
12 29 -30 0
13 31 -32 0
10 -33 0
13 34 -35 0
10 -36 0
2 4 37 6 8 38 0
10 11 39 12 13 40 0
-2 -4 0
-2 -37 0
-2 -6 0
-2 -8 0
-2 -38 0
-4 -2 0
-4 -37 0
-4 -6 0
-4 -8 0
-4 -38 0
-37 -2 0
-37 -4 0
-37 -6 0
-37 -38 0
-6 -2 0
-6 -4 0
-6 -37 0
-6 -8 0
-6 -38 0
-8 -2 0
-8 -4 0
-8 -37 0
-8 -6 0
-8 -38 0
-38 -2 0
-38 -4 0
-38 -37 0
-38 -6 0
-38 -8 0
-10 -11 0
-10 -12 0
-10 -13 0
-10 -40 0
-11 -10 0
-11 -12 0
-11 -13 0
-39 -10 0
-39 -13 0
-12 -10 0
-12 -11 0
-12 -39 0
-12 -13 0
-12 -40 0
-13 -10 0
-13 -11 0
-13 -39 0
-13 -12 0
-13 -40 0
-40 -10 0
-40 -11 0
-40 -12 0
-40 -13 0
-41 -10 0
-42 -13 0
-2 -10 0
-4 -11 0
-6 -12 0
-8 -13 0
-38 -40 0
-43 3 0
-44 5 0
-22 -29 0
-24 -34 0
-29 -22 0
-34 -24 0
-20 -14 0
-22 -16 0
-24 -1 0
-27 -15 0
-29 -16 0
-31 -1 0
-34 -1 0
-17 -5 0
-18 -7 0
-19 -9 0
-21 -3 0
-26 -3 0
-28 -5 0
-33 -3 0
-36 -3 0
-45 -5 0
-46 -47 48 0
-49 -50 51 0
-49 -47 52 0
-49 -53 54 0
-49 -55 56 0
-49 -57 -52 0
-49 -58 -54 0
-49 -59 -56 0
-57 60 0
-47 -60 0
-49 -61 0
-49 -62 0
-49 -57 63 0
-49 -58 64 0
-49 -59 65 0
-49 66 0
-67 66 0
67 -66 1 0
49 -63 52 0
49 -64 54 0
49 -65 56 0
49 -51 0
49 63 -52 0
49 64 -54 0
49 65 -56 0
47 -48 0
47 63 -52 0
46 68 69 49 0
-46 -49 0
-68 -49 0
-69 -49 0
-49 -46 0
-49 -68 0
-49 -69 0
-49 0 0
-49 -67 0
-37 70 0
-39 -70 0
-42 -4 51 0
-42 -37 52 0
-42 -6 54 0
-42 -38 56 0
-71 60 0
-39 60 0
39 -60 70 0
37 60 -70 0
42 51 -45 0
42 52 -72 0
42 54 -73 0
39 -74 0
39 48 -75 0
39 76 -77 0
11 51 -45 0
39 52 -72 0
12 54 -73 0
40 56 -78 0
-37 -8 0
-10 -39 0
-11 -39 0
-11 -40 0
-39 -11 0
-39 -12 0
-39 -40 0
-40 -39 0
-37 -39 0
-79 70 0
-80 70 0
80 -70 0
-63 -64 0
-63 -65 0
-64 -63 0
-64 -65 0
-65 -63 0
-65 -64 0
-48 -27 0
-24 -51 0
-27 -48 0
-31 -52 0
-34 -54 0
-51 -24 0
-52 -31 0
-54 -34 0
-48 -76 0
-48 -52 0
-22 -54 0
-27 -51 0
-29 -54 0
-81 -51 0
-76 -52 0
-51 -27 0
-52 -48 0
-52 -76 0
-54 -22 0
-54 -29 0
-51 -52 0
-51 -54 0
-51 -56 0
-52 -51 0
-52 -54 0
-52 -56 0
-54 -51 0
-54 -52 0
-54 -56 0
-56 -51 0
-56 -52 0
-56 -54 0
-48 -60 0
-76 -60 0
-51 -15 0
-52 -60 0
-54 -16 0
-74 -70 0
-75 -70 0
-77 -70 0
-72 -70 0
-46 -53 22 0
-46 -67 24 0
-46 -55 82 0
-69 -67 34 0
-69 -55 83 0
-46 -61 -20 0
-69 -59 -83 0
-61 14 0
-62 15 0
-58 16 0
-50 -15 0
-53 -16 0
-67 -1 0
-46 -57 0
-46 -58 0
-46 0 0
-46 -59 0
-69 -61 0
-69 -62 0
-69 -57 0
-69 0 0
-46 84 0
-69 85 0
-50 84 0
-47 86 0
-53 85 0
50 -84 15 0
47 -86 60 0
53 -85 16 0
46 20 0
69 83 0
61 -14 0
62 84 -15 0
57 86 -60 0
58 85 -16 0
0 66 -1 0
46 -48 0
46 -22 0
46 -24 0
46 -82 0
69 -81 0
69 -76 0
69 -34 0
53 -22 0
67 -24 0
55 -82 0
50 87 -27 0
53 -29 0
55 88 -89 0
50 -81 0
47 -76 0
67 -34 0
50 -51 0
53 64 -54 0
55 65 -56 0
61 62 57 58 0 59 0
50 47 53 67 55 0
-46 -69 0
-69 -46 0
-61 -62 0
-61 -57 0
-61 -58 0
-61 0 0
-61 -59 0
-62 -61 0
-62 -57 0
-62 -58 0
-62 0 0
-62 -59 0
-57 -61 0
-57 -62 0
-57 -58 0
-57 0 0
-57 -59 0
-58 -61 0
-58 -62 0
-58 -57 0
-58 0 0
-58 -59 0
0 -61 0
0 -62 0
0 -57 0
0 -58 0
0 -59 0
-59 -61 0
-59 -62 0
-59 -57 0
-59 -58 0
-59 0 0
-50 -47 0
-50 -53 0
-50 -67 0
-50 -55 0
-47 -50 0
-47 -53 0
-47 -67 0
-47 -55 0
-53 -50 0
-53 -47 0
-53 -67 0
-53 -55 0
-67 -50 0
-67 -47 0
-67 -53 0
-67 -55 0
-55 -50 0
-55 -47 0
-55 -53 0
-55 -67 0
-46 -62 0
-69 -58 0
-46 -50 0
-69 -53 0
-62 -50 0
-57 -47 0
-58 -53 0
0 -67 0
-59 -55 0
-87 -84 0
-64 -85 0
-90 -91 92 0
-90 -93 88 0
-94 -95 63 0
-94 -93 65 0
-90 -96 -87 0
-94 -97 -64 0
-96 84 0
-98 86 0
-97 85 0
-99 66 0
-95 -86 0
-91 -66 0
-90 -97 0
-90 -99 0
-90 -100 0
-94 -96 0
-94 -98 0
-94 -100 0
95 86 0
91 66 0
90 87 0
94 64 0
96 -84 0
97 -85 0
90 -92 0
90 -88 0
94 -63 0
94 -65 0
91 -92 0
93 -88 0
95 -63 0
93 -65 0
90 94 0
96 98 97 99 100 0
95 91 93 0
-90 -94 0
-94 -90 0
-96 -98 0
-96 -97 0
-96 -99 0
-96 -100 0
-98 -96 0
-98 -97 0
-98 -99 0
-98 -100 0
-97 -96 0
-97 -98 0
-97 -99 0
-97 -100 0
-99 -96 0
-99 -98 0
-99 -97 0
-99 -100 0
-100 -96 0
-100 -98 0
-100 -97 0
-100 -99 0
-95 -91 0
-95 -93 0
-91 -95 0
-91 -93 0
-93 -95 0
-93 -91 0
-90 -98 0
-94 -99 0
-90 -95 0
-94 -91 0
-98 -95 0
-99 -91 0
-100 -93 0
-68 -50 27 0
-68 -53 29 0
-68 -67 31 0
-68 -55 89 0
-68 -62 -27 0
-68 0 -31 0
-68 -59 -89 0
-68 -61 0
-68 -62 87 0
-68 -58 0
-68 0 92 0
-68 -59 88 0
-68 86 0
68 -87 27 0
68 -92 31 0
68 -88 89 0
68 87 -27 0
68 -29 0
68 92 -31 0
68 88 -89 0
67 92 -31 0
-46 -68 0
-68 -46 0
-68 -69 0
-69 -68 0
-68 -57 0
-68 -47 0
-71 -8 31 0
-92 -63 0
-63 -92 0
-87 -92 0
-87 -88 0
-92 -87 0
-92 -88 0
-88 -87 0
-88 -92 0
-92 -66 0
-63 -86 0
-24 -31 0
-31 -24 0
-31 -34 0
-34 -31 0
-27 -31 0
-29 -31 0
-31 -27 0
-31 -29 0
-31 -89 0
-89 -31 0
-69 -50 81 0
-69 -47 76 0
-101 -10 33 0
-101 -11 102 0
-101 -39 77 0
-101 -13 35 0
-101 -40 103 0
-101 -4 -102 0
-101 -37 -77 0
-101 -8 -35 0
-101 -38 -103 0
-101 -2 0
-101 -4 81 0
-101 -37 76 0
-101 -8 34 0
-101 -38 83 0
-101 16 0
101 -81 102 0
101 -76 77 0
101 -34 35 0
101 -83 103 0
101 -33 0
101 81 -102 0
101 76 -77 0
101 34 -35 0
101 83 -103 0
11 81 -102 0
40 83 -103 0
-41 -101 0
-101 -41 0
-101 -42 0
-42 -101 0
-101 -6 0
-101 -12 0
-104 -80 0
-104 -105 0
-104 -106 33 0
-104 -107 35 0
-104 -108 103 0
-104 7 0
104 -33 0
104 -77 0
104 -35 0
104 -103 0
104 102 0
44 102 0
-104 -79 0
-104 -109 0
-22 -81 0
-29 -76 0
-81 -22 0
-76 -29 0
-27 -81 0
-81 -27 0
-76 -48 0
-51 -81 0
-81 -76 0
-81 -34 0
-81 -83 0
-76 -81 0
-76 -34 0
-76 -83 0
-34 -81 0
-34 -76 0
-34 -83 0
-83 -81 0
-83 -76 0
-83 -34 0
-81 -15 0
-18 -33 0
-23 -102 0
-33 -18 0
-102 -23 0
-35 -73 0
-73 -35 0
-17 -102 0
-74 -77 0
-19 -35 0
-75 -77 0
-26 -33 0
-28 -102 0
-32 -35 0
-33 -26 0
-33 -36 0
-102 -17 0
-102 -28 0
-102 -45 0
-77 -74 0
-77 -75 0
-35 -19 0
-35 -25 0
-35 -32 0
-36 -33 0
-45 -102 0
-33 -102 0
-33 -77 0
-33 -35 0
-33 -103 0
-102 -33 0
-102 -77 0
-102 -35 0
-102 -103 0
-77 -33 0
-77 -102 0
-77 -35 0
-77 -103 0
-35 -33 0
-35 -102 0
-35 -77 0
-35 -103 0
-103 -33 0
-103 -102 0
-103 -77 0
-103 -35 0
-102 -5 0
-35 -9 0
-42 -10 36 0
-42 -11 45 0
-42 -39 72 0
-42 -12 73 0
-42 -40 78 0
-42 -4 -45 0
-42 -37 -72 0
-42 -6 -73 0
-42 -38 -78 0
-42 -2 0
-42 1 0
42 -51 45 0
42 -52 72 0
42 -54 73 0
42 -56 78 0
42 -36 0
42 56 -78 0
-42 -8 0
-43 -44 0
-43 -80 0
-110 -80 0
-79 -44 0
-111 -44 0
-111 -105 0
-43 -108 0
-110 -108 0
-79 -108 0
-111 -106 36 0
-111 -109 73 0
-111 -108 78 0
-110 5 0
-111 9 0
44 -5 0
43 -17 0
43 -74 0
43 -18 0
43 -19 0
110 -21 0
110 -75 0
110 -23 0
110 -25 0
79 -26 0
79 -28 0
79 -30 0
79 -32 0
111 -36 0
111 -45 0
111 -73 0
111 -78 0
43 112 0
111 72 0
80 72 0
43 110 79 104 111 0
44 80 105 0
-43 -110 0
-43 -79 0
-43 -104 0
-43 -111 0
-110 -43 0
-110 -79 0
-110 -104 0
-110 -111 0
-79 -43 0
-79 -110 0
-79 -104 0
-79 -111 0
-104 -43 0
-104 -110 0
-104 -111 0
-111 -43 0
-111 -110 0
-111 -79 0
-111 -104 0
-44 -80 0
-44 -105 0
-80 -44 0
-80 -105 0
-105 -44 0
-105 -80 0
-43 -106 0
-111 -107 0
-110 -44 0
-79 -80 0
-19 -36 0
-32 -72 0
-72 -32 0
-17 -45 0
-74 -72 0
-18 -73 0
-75 -72 0
-28 -45 0
-30 -73 0
-77 -72 0
-36 -26 0
-45 -17 0
-45 -28 0
-72 -74 0
-72 -75 0
-72 -77 0
-73 -18 0
-73 -23 0
-73 -30 0
-36 -45 0
-36 -72 0
-36 -73 0
-36 -78 0
-45 -36 0
-45 -72 0
-45 -73 0
-45 -78 0
-72 -36 0
-72 -45 0
-72 -73 0
-72 -78 0
-73 -36 0
-73 -45 0
-73 -72 0
-73 -78 0
-78 -36 0
-78 -45 0
-78 -72 0
-78 -73 0
-73 -7 0
-41 -11 17 0
-41 -39 74 0
-41 -12 18 0
-41 -13 19 0
-41 -40 112 0
-71 -10 26 0
-71 -11 28 0
-71 -12 30 0
-71 -13 32 0
-71 -40 113 0
-41 -38 -112 0
-71 -4 -28 0
-71 -6 -30 0
-71 -8 -32 0
-71 -38 -113 0
-41 -4 0
-41 -37 0
-41 -6 0
-41 -8 0
-71 -2 0
-71 -4 27 0
-71 -6 29 0
-71 -38 89 0
-41 14 0
41 112 0
71 -27 28 0
71 -29 30 0
71 -31 32 0
71 -89 113 0
41 -17 0
41 -74 0
41 -18 0
41 -19 0
71 -26 0
71 27 -28 0
71 29 -30 0
71 31 -32 0
71 89 -113 0
40 89 -113 0
41 114 71 101 42 0
-41 -71 0
-41 -42 0
-114 -71 0
-71 -41 0
-71 -114 0
-71 -101 0
-71 -42 0
-101 -71 0
-42 -41 0
-42 -71 0
-41 -2 0
-71 -37 0
-71 -39 0
-43 -109 18 0
-43 -107 19 0
-79 -106 26 0
-79 -109 30 0
-79 -107 32 0
79 113 0
105 112 0
105 113 0
-108 -105 0
-27 -29 0
-27 -89 0
-29 -27 0
-29 -89 0
-89 -27 0
-89 -29 0
-74 -26 0
-26 -74 0
-30 -77 0
-77 -30 0
-36 -19 0
-17 -28 0
-18 -30 0
-19 -32 0
-26 -36 0
-28 -17 0
-30 -18 0
-32 -19 0
-17 -74 0
-17 -18 0
-17 -19 0
-17 -112 0
-74 -17 0
-74 -18 0
-74 -19 0
-74 -112 0
-18 -17 0
-18 -74 0
-18 -19 0
-18 -112 0
-19 -17 0
-19 -74 0
-19 -18 0
-19 -112 0
-112 -17 0
-112 -74 0
-112 -18 0
-112 -19 0
-26 -28 0
-26 -30 0
-26 -32 0
-26 -113 0
-28 -26 0
-28 -30 0
-28 -32 0
-28 -113 0
-30 -26 0
-30 -28 0
-30 -32 0
-30 -113 0
-32 -26 0
-32 -28 0
-32 -30 0
-32 -113 0
-113 -26 0
-113 -28 0
-113 -30 0
-113 -32 0
-30 -7 0
-32 -9 0
-114 -10 21 0
-114 -39 75 0
-114 -12 23 0
-114 -13 25 0
-114 -40 115 0
-114 -2 -21 0
-114 -37 -75 0
-114 -6 -23 0
-114 -8 -25 0
-114 -38 -115 0
-114 -2 20 0
-114 -37 48 0
-114 -6 22 0
-114 -8 24 0
-114 -38 82 0
-114 15 0
114 -20 21 0
114 -48 75 0
114 -22 23 0
114 -24 25 0
114 -82 115 0
114 20 -21 0
114 48 -75 0
114 22 -23 0
114 24 -25 0
114 82 -115 0
40 82 -115 0
-41 -114 0
-114 -41 0
-114 -101 0
-114 -42 0
-101 -114 0
-42 -114 0
-114 -4 0
-114 -11 0
-110 -106 21 0
-110 -109 23 0
-110 -107 25 0
106 3 0
109 7 0
107 9 0
110 115 0
105 115 0
106 109 107 108 0
-106 -109 0
-106 -107 0
-106 -108 0
-109 -106 0
-109 -107 0
-109 -108 0
-107 -106 0
-107 -109 0
-107 -108 0
-108 -106 0
-108 -109 0
-108 -107 0
-20 -48 0
-20 -22 0
-20 -24 0
-20 -82 0
-48 -20 0
-48 -22 0
-48 -24 0
-48 -82 0
-22 -20 0
-22 -48 0
-22 -24 0
-22 -82 0
-24 -20 0
-24 -48 0
-24 -22 0
-24 -82 0
-82 -20 0
-82 -48 0
-82 -22 0
-82 -24 0
-17 -21 0
-21 -17 0
-75 -28 0
-25 -45 0
-28 -75 0
-45 -25 0
-74 -75 0
-18 -23 0
-19 -25 0
-21 -26 0
-21 -33 0
-21 -36 0
-75 -74 0
-23 -18 0
-23 -30 0
-23 -73 0
-25 -19 0
-25 -32 0
-25 -35 0
-26 -21 0
-30 -23 0
-32 -25 0
-33 -21 0
-36 -21 0
-21 -75 0
-21 -23 0
-21 -25 0
-21 -115 0
-75 -21 0
-75 -23 0
-75 -25 0
-75 -115 0
-23 -21 0
-23 -75 0
-23 -25 0
-23 -115 0
-25 -21 0
-25 -75 0
-25 -23 0
-25 -115 0
-115 -21 0
-115 -75 0
-115 -23 0
-115 -25 0
-23 -7 0
-25 -9 0
